c turning on binary mode checking
c parsing input formula with 259840 variables and 1039934 clauses
c finished parsing, read 23727963 bytes from proof file
c detected empty clause; start verification via backward checking
c 16676 of 1039934 clauses in core                            
c 22123 of 608476 lemmas in core using 145585 resolution steps
c 0 RAT lemmas in core; 1316 redundant literals in core lemmas
s VERIFIED
c verification time: 3.151 seconds
